min: 0.2*G1 + 0.005*A1 + 0.005*B1 + 0.2*G2 + 0.005*A2 + 0.005*B2 + 0.2*G3 + 0.005*A3 + 0.005*B3 + 0.2*G4 + 0.005*A4 + 0.005*B4 + 0.2*G5 + 0.005*A5 + 0.005*B5;
d1 <= 2.0*T1 + G1;
V1 = 500.0 + y1 - T1;
A1 = y1 - T1 + B1;
y1 = 500.0;
d1 = 1000.0;
V1 >= 200.0;
V1 <= 1000.0;
G1 <= 1000.0;
A1 >= 0;
B1 >= 0;
G1 >= 0;
T1 >= 0;
d2 <= 2.0*T2 + G2;
V2 = V1 + y2 - T2;
A2 = y2 - T2 + B2;
y2 = 500.0;
d2 = 1000.0;
V2 >= 200.0;
V2 <= 1000.0;
G2 <= 1000.0;
A2 >= 0;
B2 >= 0;
G2 >= 0;
T2 >= 0;
d3 <= 2.0*T3 + G3;
V3 = V2 + y3 - T3;
A3 = y3 - T3 + B3;
y3 = 500.0;
d3 = 1000.0;
V3 >= 200.0;
V3 <= 1000.0;
G3 <= 1000.0;
A3 >= 0;
B3 >= 0;
G3 >= 0;
T3 >= 0;
d4 <= 2.0*T4 + G4;
V4 = V3 + y4 - T4;
A4 = y4 - T4 + B4;
y4 = 500.0;
d4 = 1000.0;
V4 >= 200.0;
V4 <= 1000.0;
G4 <= 1000.0;
A4 >= 0;
B4 >= 0;
G4 >= 0;
T4 >= 0;
d5 <= 2.0*T5 + G5;
V5 = V4 + y5 - T5;
A5 = y5 - T5 + B5;
y5 = 500.0;
d5 = 1000.0;
V5 >= 200.0;
V5 <= 1000.0;
G5 <= 1000.0;
A5 >= 0;
B5 >= 0;
G5 >= 0;
T5 >= 0;

